<?xml version = "1.0" encoding="UTF-8" standalone="yes"?>
<CPLEXSolution version="1.2">
 <header
   problemName="resolve problem RL"
   objectiveValue="498.000000000162"
   solutionTypeValue="1"
   solutionTypeString="basic"
   solutionStatusValue="1"
   solutionStatusString="optimal"
   solutionMethodString="dual"
   primalFeasible="1"
   dualFeasible="1"
   simplexIterations="32"
   writeLevel="1"/>
 <quality
   epRHS="1e-05"
   epOpt="1e-05"
   maxPrimalInfeas="1.68933103375518e-10"
   maxDualInfeas="0"
   maxPrimalResidual="2.64711452488159e-11"
   maxDualResidual="1.25880209034257e-14"
   maxX="582.335172619047"
   maxPi="20.8437533178156"
   maxSlack="1.68933103375518e-10"
   maxRedCost="54.9614309631685"
   kappa="20589681.4057499"/>
 <linearConstraints>
  <constraint index="0" status="LL" slack="0" dual="0.0948229990103213"/>
  <constraint index="1" status="LL" slack="0" dual="-0.137870928475643"/>
  <constraint index="2" status="LL" slack="0" dual="-0.104496517180115"/>
  <constraint index="3" status="LL" slack="0" dual="0.134365191242001"/>
  <constraint index="4" status="LL" slack="0" dual="0.502102709958206"/>
  <constraint index="5" status="LL" slack="0" dual="0.194260653852659"/>
  <constraint index="6" status="LL" slack="0" dual="0.110575681343184"/>
  <constraint index="7" status="LL" slack="0" dual="0.214853111333065"/>
  <constraint index="8" status="LL" slack="0" dual="-0.342609909488876"/>
  <constraint index="9" status="LL" slack="0" dual="0.237776383353233"/>
  <constraint index="10" status="LL" slack="0" dual="0.00229732641824969"/>
  <constraint index="11" status="LL" slack="0" dual="-0.00916002970028293"/>
  <constraint index="12" status="LL" slack="0" dual="0.0024009879053499"/>
  <constraint index="13" status="LL" slack="0" dual="-0.0565605337008158"/>
  <constraint index="14" status="LL" slack="0" dual="-0.0372194804815906"/>
  <constraint index="15" status="LL" slack="0" dual="-0.0128898851112848"/>
  <constraint index="16" status="LL" slack="0" dual="-0.0165952607616893"/>
  <constraint index="17" status="LL" slack="0" dual="0.120479233251904"/>
  <constraint index="18" status="LL" slack="0" dual="-0.0698397230332208"/>
  <constraint index="19" status="LL" slack="0" dual="0.00311718463875697"/>
  <constraint index="20" status="LL" slack="0" dual="0.016847058404172"/>
  <constraint index="21" status="LL" slack="0" dual="0.0147378505516256"/>
  <constraint index="22" status="LL" slack="0" dual="0.0127663682866229"/>
  <constraint index="23" status="LL" slack="0" dual="0.0038342072397139"/>
  <constraint index="24" status="LL" slack="0" dual="-0.00392916408495837"/>
  <constraint index="25" status="LL" slack="0" dual="-0.148372029192135"/>
  <constraint index="26" status="LL" slack="0" dual="-0.0542960238187242"/>
  <constraint index="27" status="LL" slack="0" dual="0.0357395296131628"/>
  <constraint index="28" status="LL" slack="0" dual="-0.0212939370177369"/>
  <constraint index="29" status="LL" slack="0" dual="0.128079860567802"/>
  <constraint index="30" status="LL" slack="0" dual="0.10833398846962"/>
  <constraint index="31" status="LL" slack="0" dual="-20.8437533178156"/>
  <constraint index="32" status="LL" slack="0" dual="-2.49160447522403"/>
  <constraint index="33" status="LL" slack="0" dual="-0.0168392536257792"/>
  <constraint index="34" status="LL" slack="0" dual="0.0487412953102987"/>
  <constraint index="35" status="LL" slack="0" dual="0.00586867267568207"/>
  <constraint index="36" status="LL" slack="0" dual="-0.0615423958936382"/>
  <constraint index="37" status="LL" slack="0" dual="0.0633029202594321"/>
  <constraint index="38" status="LL" slack="0" dual="-0.036530396761578"/>
  <constraint index="39" status="LL" slack="0" dual="-0.000609113523834828"/>
  <constraint index="40" status="LL" slack="0" dual="-0.00461759817154816"/>
  <constraint index="41" status="LL" slack="0" dual="-1.30529210015111"/>
  <constraint index="42" status="LL" slack="0" dual="0.094295275004007"/>
  <constraint index="43" status="BS" slack="-1.50359385828932e-12" dual="0"/>
  <constraint index="44" status="BS" slack="-1.12664510476331e-11" dual="0"/>
  <constraint index="45" status="LL" slack="0" dual="-0"/>
  <constraint index="46" status="LL" slack="0" dual="0.227508859351002"/>
  <constraint index="47" status="LL" slack="0" dual="0.290633786532674"/>
  <constraint index="48" status="LL" slack="0" dual="0.107874209865473"/>
  <constraint index="49" status="LL" slack="0" dual="0.0938843792596273"/>
  <constraint index="50" status="LL" slack="0" dual="0.159684105891257"/>
  <constraint index="51" status="BS" slack="1.68933103375518e-10" dual="0"/>
  <constraint index="52" status="LL" slack="0" dual="-0"/>
 </linearConstraints>
 <variables>
  <variable name="x_0" index="0" status="BS" value="5.99999999998757" reducedCost="0"/>
  <variable name="x_1" index="1" status="BS" value="18.9999999999771" reducedCost="0"/>
  <variable name="x_2" index="2" status="BS" value="9.43600753089413e-12" reducedCost="0"/>
  <variable name="x_3" index="3" status="BS" value="9.99999999998671" reducedCost="0"/>
  <variable name="x_4" index="4" status="BS" value="5.99999999999551" reducedCost="0"/>
  <variable name="x_5" index="5" status="BS" value="36.0000000000111" reducedCost="0"/>
  <variable name="x_6" index="6" status="BS" value="10.000000000019" reducedCost="0"/>
  <variable name="x_7" index="7" status="BS" value="12.0000000000247" reducedCost="0"/>
  <variable name="x_8" index="8" status="BS" value="23.0000000000206" reducedCost="0"/>
  <variable name="x_9" index="9" status="BS" value="18.9999999999962" reducedCost="0"/>
  <variable name="x_10" index="10" status="BS" value="-1.13042908367333e-12" reducedCost="0"/>
  <variable name="x_11" index="11" status="BS" value="0" reducedCost="0"/>
  <variable name="x_12" index="12" status="BS" value="0" reducedCost="0"/>
  <variable name="x_13" index="13" status="BS" value="0.999999999999245" reducedCost="0"/>
  <variable name="x_14" index="14" status="BS" value="0" reducedCost="0"/>
  <variable name="x_15" index="15" status="BS" value="-1.2756462552943e-13" reducedCost="0"/>
  <variable name="x_16" index="16" status="BS" value="1.66755498298699e-13" reducedCost="0"/>
  <variable name="x_17" index="17" status="BS" value="0" reducedCost="0"/>
  <variable name="x_18" index="18" status="BS" value="2.64039605979675e-13" reducedCost="0"/>
  <variable name="x_19" index="19" status="BS" value="0" reducedCost="0"/>
  <variable name="S_0" index="20" status="LL" value="0" reducedCost="0.000313835403159025"/>
  <variable name="S_1" index="21" status="BS" value="582.335172619047" reducedCost="0"/>
  <variable name="S_2" index="22" status="BS" value="542.907183101014" reducedCost="0"/>
  <variable name="S_3" index="23" status="BS" value="296.631515336516" reducedCost="0"/>
  <variable name="S_4" index="24" status="BS" value="223.367407247835" reducedCost="0"/>
  <variable name="S_5" index="25" status="BS" value="158.850234812868" reducedCost="0"/>
  <variable name="S_6" index="26" status="BS" value="115.085114887251" reducedCost="0"/>
  <variable name="S_7" index="27" status="BS" value="97.641852681924" reducedCost="0"/>
  <variable name="S_8" index="28" status="BS" value="76.8888752118789" reducedCost="0"/>
  <variable name="S_9" index="29" status="LL" value="0" reducedCost="0.0321344058970228"/>
  <variable name="S_10" index="30" status="BS" value="261.070618339328" reducedCost="0"/>
  <variable name="S_11" index="31" status="BS" value="251.380440718005" reducedCost="0"/>
  <variable name="S_12" index="32" status="BS" value="374.323999539279" reducedCost="0"/>
  <variable name="S_13" index="33" status="BS" value="208.236101571793" reducedCost="0"/>
  <variable name="S_14" index="34" status="BS" value="224.228066048841" reducedCost="0"/>
  <variable name="S_15" index="35" status="BS" value="192.978053905002" reducedCost="0"/>
  <variable name="S_16" index="36" status="BS" value="333.23980812406" reducedCost="0"/>
  <variable name="S_17" index="37" status="BS" value="172.684022349526" reducedCost="0"/>
  <variable name="S_18" index="38" status="BS" value="212.641340502903" reducedCost="0"/>
  <variable name="S_19" index="39" status="BS" value="249.401562486746" reducedCost="0"/>
  <variable name="S_20" index="40" status="BS" value="274.581437834846" reducedCost="0"/>
  <variable name="S_21" index="41" status="LL" value="0" reducedCost="54.9614309631685"/>
  <variable name="S_22" index="42" status="BS" value="1.2756462552943e-13" reducedCost="0"/>
  <variable name="S_23" index="43" status="BS" value="5.24862985622143e-10" reducedCost="0"/>
  <variable name="S_24" index="44" status="LL" value="0" reducedCost="0.0293945931793083"/>
  <variable name="S_25" index="45" status="BS" value="-3.55768747795082e-11" reducedCost="0"/>
  <variable name="S_26" index="46" status="BS" value="1.11057295895329e-11" reducedCost="0"/>
  <variable name="S_27" index="47" status="BS" value="180.796170162501" reducedCost="0"/>
  <variable name="S_28" index="48" status="BS" value="171.96141414309" reducedCost="0"/>
  <variable name="S_29" index="49" status="BS" value="2.32185039424071e-12" reducedCost="0"/>
  <variable name="S_30" index="50" status="BS" value="-2.91642855698715e-11" reducedCost="0"/>
  <variable name="S_31" index="51" status="BS" value="-1.66755498298699e-13" reducedCost="0"/>
  <variable name="S_32" index="52" status="LL" value="0" reducedCost="0.094295275004007"/>
  <variable name="S_33" index="53" status="LL" value="0" reducedCost="0"/>
  <variable name="S_34" index="54" status="LL" value="0" reducedCost="0"/>
  <variable name="S_35" index="55" status="BS" value="1.07890040123223e-10" reducedCost="0"/>
  <variable name="S_36" index="56" status="LL" value="0" reducedCost="0.227508859351002"/>
  <variable name="S_37" index="57" status="LL" value="0" reducedCost="0.290633786532674"/>
  <variable name="S_38" index="58" status="LL" value="0" reducedCost="0.107874209865473"/>
  <variable name="S_39" index="59" status="LL" value="0" reducedCost="0.0938843792596273"/>
  <variable name="S_40" index="60" status="LL" value="0" reducedCost="0.159684105891257"/>
  <variable name="S_41" index="61" status="LL" value="0" reducedCost="0"/>
  <variable name="S_42" index="62" status="BS" value="-3.96651507385478e-11" reducedCost="0"/>
 </variables>
</CPLEXSolution>
